\ LP format - for model browsing. Use MPS format to capture full model detail.
Minimize
  - 0.2 y[0,1] - 0.2 y[2,0] - 0.2 y[3,6] - 0.2 y[3,5] - 0.2 y[4,3] - y[10,0]
   - y[11,6] - y[12,4] - y[13,4] - y[14,4] - y[15,4] - 0.8 y[16,18]
   - 0.8 y[16,17] - 0.6 y[16,2] - 0.6 y[16,0] - 0.6 y[17,0] - 0.8 y[18,10]
   - 0.6 y[18,0] - 0.6 y[19,2] - 0.8 y[21,13] - 0.6 y[21,4] - 0.6 y[21,3]
   - 0.6 y[21,5] - 0.8 y[23,14] - 0.6 y[23,4] - 0.6 y[23,5] - 0.8 y[25,13]
   - 0.6 y[25,4] - 0.6 y[26,4] - 0.8 y[27,14] - 0.6 y[27,4] - 0.6 y[28,4]
   - 0.8 y[29,31] - 0.8 y[29,30] - 0.6 y[29,4] - 0.6 y[30,4] - 0.8 y[31,12]
   - 0.6 y[31,4] - 0.8 y[32,13] - 0.6 y[32,4] - 0.8 y[33,14] - 0.6 y[33,4]
   - 0.8 y[34,13] - 0.6 y[34,4] - 0.8 y[35,11] - 0.6 y[35,6] - 0.8 y[36,13]
   - 0.6 y[36,4] - 0.6 y[37,3] - 0.6 y[40,4] - 0.6 y[40,3] - 0.8 y[41,14]
   - 0.6 y[41,4] - 0.6 y[41,3] - 0.6 y[42,4] - 0.6 y[42,3] - 0.8 y[43,14]
   - 0.6 y[43,3] - 0.6 y[43,4] + 39.2 Constant
Subject To
 (1)microservice-belonging[0]: x[0,0] + x[0,1] = 1
 (1)microservice-belonging[1]: x[1,0] + x[1,1] = 1
 (1)microservice-belonging[2]: x[2,0] + x[2,1] = 1
 (1)microservice-belonging[3]: x[3,0] + x[3,1] = 1
 (1)microservice-belonging[4]: x[4,0] + x[4,1] = 1
 (1)microservice-belonging[5]: x[5,0] + x[5,1] = 1
 (1)microservice-belonging[6]: x[6,0] + x[6,1] = 1
 (1)microservice-belonging[7]: x[7,0] + x[7,1] = 1
 (1)microservice-belonging[8]: x[8,0] + x[8,1] = 1
 (1)microservice-belonging[9]: x[9,0] + x[9,1] = 1
 (1)microservice-belonging[10]: x[10,0] + x[10,1] = 1
 (1)microservice-belonging[11]: x[11,0] + x[11,1] = 1
 (1)microservice-belonging[12]: x[12,0] + x[12,1] = 1
 (1)microservice-belonging[13]: x[13,0] + x[13,1] = 1
 (1)microservice-belonging[14]: x[14,0] + x[14,1] = 1
 (1)microservice-belonging[15]: x[15,0] + x[15,1] = 1
 (1)microservice-belonging[16]: x[16,0] + x[16,1] = 1
 (1)microservice-belonging[17]: x[17,0] + x[17,1] = 1
 (1)microservice-belonging[18]: x[18,0] + x[18,1] = 1
 (1)microservice-belonging[19]: x[19,0] + x[19,1] = 1
 (1)microservice-belonging[21]: x[21,0] + x[21,1] = 1
 (1)microservice-belonging[23]: x[23,0] + x[23,1] = 1
 (1)microservice-belonging[25]: x[25,0] + x[25,1] = 1
 (1)microservice-belonging[26]: x[26,0] + x[26,1] = 1
 (1)microservice-belonging[27]: x[27,0] + x[27,1] = 1
 (1)microservice-belonging[28]: x[28,0] + x[28,1] = 1
 (1)microservice-belonging[29]: x[29,0] + x[29,1] = 1
 (1)microservice-belonging[30]: x[30,0] + x[30,1] = 1
 (1)microservice-belonging[31]: x[31,0] + x[31,1] = 1
 (1)microservice-belonging[32]: x[32,0] + x[32,1] = 1
 (1)microservice-belonging[33]: x[33,0] + x[33,1] = 1
 (1)microservice-belonging[34]: x[34,0] + x[34,1] = 1
 (1)microservice-belonging[35]: x[35,0] + x[35,1] = 1
 (1)microservice-belonging[36]: x[36,0] + x[36,1] = 1
 (1)microservice-belonging[37]: x[37,0] + x[37,1] = 1
 (1)microservice-belonging[40]: x[40,0] + x[40,1] = 1
 (1)microservice-belonging[41]: x[41,0] + x[41,1] = 1
 (1)microservice-belonging[42]: x[42,0] + x[42,1] = 1
 (1)microservice-belonging[43]: x[43,0] + x[43,1] = 1
 (2)microservice-composition[0]: x[10,0] + x[11,0] + x[12,0] + x[13,0]
   + x[14,0] + x[15,0] + x[16,0] + x[17,0] + x[18,0] + x[19,0] + x[21,0]
   + x[23,0] + x[25,0] + x[26,0] + x[27,0] + x[28,0] + x[29,0] + x[30,0]
   + x[31,0] + x[32,0] + x[33,0] + x[34,0] + x[35,0] + x[36,0] + x[37,0]
   + x[40,0] + x[41,0] + x[42,0] + x[43,0] >= 1
 (2)microservice-composition[1]: x[10,1] + x[11,1] + x[12,1] + x[13,1]
   + x[14,1] + x[15,1] + x[16,1] + x[17,1] + x[18,1] + x[19,1] + x[21,1]
   + x[23,1] + x[25,1] + x[26,1] + x[27,1] + x[28,1] + x[29,1] + x[30,1]
   + x[31,1] + x[32,1] + x[33,1] + x[34,1] + x[35,1] + x[36,1] + x[37,1]
   + x[40,1] + x[41,1] + x[42,1] + x[43,1] >= 1
 (3)bonding-z-to-x[0,1,0]: - x[0,0] + z[0,1,0] <= 0
 (3)bonding-z-to-x[0,1,1]: - x[0,1] + z[0,1,1] <= 0
 (3)bonding-z-to-x[0,8,0]: - x[0,0] + z[0,8,0] <= 0
 (3)bonding-z-to-x[0,8,1]: - x[0,1] + z[0,8,1] <= 0
 (3)bonding-z-to-x[1,9,0]: - x[1,0] + z[1,9,0] <= 0
 (3)bonding-z-to-x[1,9,1]: - x[1,1] + z[1,9,1] <= 0
 (3)bonding-z-to-x[2,0,0]: - x[2,0] + z[2,0,0] <= 0
 (3)bonding-z-to-x[2,0,1]: - x[2,1] + z[2,0,1] <= 0
 (3)bonding-z-to-x[3,6,0]: - x[3,0] + z[3,6,0] <= 0
 (3)bonding-z-to-x[3,6,1]: - x[3,1] + z[3,6,1] <= 0
 (3)bonding-z-to-x[3,5,0]: - x[3,0] + z[3,5,0] <= 0
 (3)bonding-z-to-x[3,5,1]: - x[3,1] + z[3,5,1] <= 0
 (3)bonding-z-to-x[3,9,0]: - x[3,0] + z[3,9,0] <= 0
 (3)bonding-z-to-x[3,9,1]: - x[3,1] + z[3,9,1] <= 0
 (3)bonding-z-to-x[4,3,0]: - x[4,0] + z[4,3,0] <= 0
 (3)bonding-z-to-x[4,3,1]: - x[4,1] + z[4,3,1] <= 0
 (3)bonding-z-to-x[4,8,0]: - x[4,0] + z[4,8,0] <= 0
 (3)bonding-z-to-x[4,8,1]: - x[4,1] + z[4,8,1] <= 0
 (3)bonding-z-to-x[5,7,0]: - x[5,0] + z[5,7,0] <= 0
 (3)bonding-z-to-x[5,7,1]: - x[5,1] + z[5,7,1] <= 0
 (3)bonding-z-to-x[6,9,0]: - x[6,0] + z[6,9,0] <= 0
 (3)bonding-z-to-x[6,9,1]: - x[6,1] + z[6,9,1] <= 0
 (3)bonding-z-to-x[8,7,0]: - x[8,0] + z[8,7,0] <= 0
 (3)bonding-z-to-x[8,7,1]: - x[8,1] + z[8,7,1] <= 0
 (3)bonding-z-to-x[9,7,0]: - x[9,0] + z[9,7,0] <= 0
 (3)bonding-z-to-x[9,7,1]: - x[9,1] + z[9,7,1] <= 0
 (3)bonding-z-to-x[10,0,0]: - x[10,0] + z[10,0,0] <= 0
 (3)bonding-z-to-x[10,0,1]: - x[10,1] + z[10,0,1] <= 0
 (3)bonding-z-to-x[11,6,0]: - x[11,0] + z[11,6,0] <= 0
 (3)bonding-z-to-x[11,6,1]: - x[11,1] + z[11,6,1] <= 0
 (3)bonding-z-to-x[12,4,0]: - x[12,0] + z[12,4,0] <= 0
 (3)bonding-z-to-x[12,4,1]: - x[12,1] + z[12,4,1] <= 0
 (3)bonding-z-to-x[13,4,0]: - x[13,0] + z[13,4,0] <= 0
 (3)bonding-z-to-x[13,4,1]: - x[13,1] + z[13,4,1] <= 0
 (3)bonding-z-to-x[14,4,0]: - x[14,0] + z[14,4,0] <= 0
 (3)bonding-z-to-x[14,4,1]: - x[14,1] + z[14,4,1] <= 0
 (3)bonding-z-to-x[15,4,0]: - x[15,0] + z[15,4,0] <= 0
 (3)bonding-z-to-x[15,4,1]: - x[15,1] + z[15,4,1] <= 0
 (3)bonding-z-to-x[16,18,0]: - x[16,0] + z[16,18,0] <= 0
 (3)bonding-z-to-x[16,18,1]: - x[16,1] + z[16,18,1] <= 0
 (3)bonding-z-to-x[16,17,0]: - x[16,0] + z[16,17,0] <= 0
 (3)bonding-z-to-x[16,17,1]: - x[16,1] + z[16,17,1] <= 0
 (3)bonding-z-to-x[16,2,0]: - x[16,0] + z[16,2,0] <= 0
 (3)bonding-z-to-x[16,2,1]: - x[16,1] + z[16,2,1] <= 0
 (3)bonding-z-to-x[16,0,0]: - x[16,0] + z[16,0,0] <= 0
 (3)bonding-z-to-x[16,0,1]: - x[16,1] + z[16,0,1] <= 0
 (3)bonding-z-to-x[17,0,0]: - x[17,0] + z[17,0,0] <= 0
 (3)bonding-z-to-x[17,0,1]: - x[17,1] + z[17,0,1] <= 0
 (3)bonding-z-to-x[18,10,0]: - x[18,0] + z[18,10,0] <= 0
 (3)bonding-z-to-x[18,10,1]: - x[18,1] + z[18,10,1] <= 0
 (3)bonding-z-to-x[18,0,0]: - x[18,0] + z[18,0,0] <= 0
 (3)bonding-z-to-x[18,0,1]: - x[18,1] + z[18,0,1] <= 0
 (3)bonding-z-to-x[19,2,0]: - x[19,0] + z[19,2,0] <= 0
 (3)bonding-z-to-x[19,2,1]: - x[19,1] + z[19,2,1] <= 0
 (3)bonding-z-to-x[21,13,0]: - x[21,0] + z[21,13,0] <= 0
 (3)bonding-z-to-x[21,13,1]: - x[21,1] + z[21,13,1] <= 0
 (3)bonding-z-to-x[21,4,0]: - x[21,0] + z[21,4,0] <= 0
 (3)bonding-z-to-x[21,4,1]: - x[21,1] + z[21,4,1] <= 0
 (3)bonding-z-to-x[21,3,0]: - x[21,0] + z[21,3,0] <= 0
 (3)bonding-z-to-x[21,3,1]: - x[21,1] + z[21,3,1] <= 0
 (3)bonding-z-to-x[21,5,0]: - x[21,0] + z[21,5,0] <= 0
 (3)bonding-z-to-x[21,5,1]: - x[21,1] + z[21,5,1] <= 0
 (3)bonding-z-to-x[23,14,0]: - x[23,0] + z[23,14,0] <= 0
 (3)bonding-z-to-x[23,14,1]: - x[23,1] + z[23,14,1] <= 0
 (3)bonding-z-to-x[23,4,0]: - x[23,0] + z[23,4,0] <= 0
 (3)bonding-z-to-x[23,4,1]: - x[23,1] + z[23,4,1] <= 0
 (3)bonding-z-to-x[23,5,0]: - x[23,0] + z[23,5,0] <= 0
 (3)bonding-z-to-x[23,5,1]: - x[23,1] + z[23,5,1] <= 0
 (3)bonding-z-to-x[25,13,0]: - x[25,0] + z[25,13,0] <= 0
 (3)bonding-z-to-x[25,13,1]: - x[25,1] + z[25,13,1] <= 0
 (3)bonding-z-to-x[25,4,0]: - x[25,0] + z[25,4,0] <= 0
 (3)bonding-z-to-x[25,4,1]: - x[25,1] + z[25,4,1] <= 0
 (3)bonding-z-to-x[26,4,0]: - x[26,0] + z[26,4,0] <= 0
 (3)bonding-z-to-x[26,4,1]: - x[26,1] + z[26,4,1] <= 0
 (3)bonding-z-to-x[27,14,0]: - x[27,0] + z[27,14,0] <= 0
 (3)bonding-z-to-x[27,14,1]: - x[27,1] + z[27,14,1] <= 0
 (3)bonding-z-to-x[27,4,0]: - x[27,0] + z[27,4,0] <= 0
 (3)bonding-z-to-x[27,4,1]: - x[27,1] + z[27,4,1] <= 0
 (3)bonding-z-to-x[28,4,0]: - x[28,0] + z[28,4,0] <= 0
 (3)bonding-z-to-x[28,4,1]: - x[28,1] + z[28,4,1] <= 0
 (3)bonding-z-to-x[29,31,0]: - x[29,0] + z[29,31,0] <= 0
 (3)bonding-z-to-x[29,31,1]: - x[29,1] + z[29,31,1] <= 0
 (3)bonding-z-to-x[29,30,0]: - x[29,0] + z[29,30,0] <= 0
 (3)bonding-z-to-x[29,30,1]: - x[29,1] + z[29,30,1] <= 0
 (3)bonding-z-to-x[29,4,0]: - x[29,0] + z[29,4,0] <= 0
 (3)bonding-z-to-x[29,4,1]: - x[29,1] + z[29,4,1] <= 0
 (3)bonding-z-to-x[30,4,0]: - x[30,0] + z[30,4,0] <= 0
 (3)bonding-z-to-x[30,4,1]: - x[30,1] + z[30,4,1] <= 0
 (3)bonding-z-to-x[31,12,0]: - x[31,0] + z[31,12,0] <= 0
 (3)bonding-z-to-x[31,12,1]: - x[31,1] + z[31,12,1] <= 0
 (3)bonding-z-to-x[31,4,0]: - x[31,0] + z[31,4,0] <= 0
 (3)bonding-z-to-x[31,4,1]: - x[31,1] + z[31,4,1] <= 0
 (3)bonding-z-to-x[32,13,0]: - x[32,0] + z[32,13,0] <= 0
 (3)bonding-z-to-x[32,13,1]: - x[32,1] + z[32,13,1] <= 0
 (3)bonding-z-to-x[32,4,0]: - x[32,0] + z[32,4,0] <= 0
 (3)bonding-z-to-x[32,4,1]: - x[32,1] + z[32,4,1] <= 0
 (3)bonding-z-to-x[33,14,0]: - x[33,0] + z[33,14,0] <= 0
 (3)bonding-z-to-x[33,14,1]: - x[33,1] + z[33,14,1] <= 0
 (3)bonding-z-to-x[33,4,0]: - x[33,0] + z[33,4,0] <= 0
 (3)bonding-z-to-x[33,4,1]: - x[33,1] + z[33,4,1] <= 0
 (3)bonding-z-to-x[34,13,0]: - x[34,0] + z[34,13,0] <= 0
 (3)bonding-z-to-x[34,13,1]: - x[34,1] + z[34,13,1] <= 0
 (3)bonding-z-to-x[34,4,0]: - x[34,0] + z[34,4,0] <= 0
 (3)bonding-z-to-x[34,4,1]: - x[34,1] + z[34,4,1] <= 0
 (3)bonding-z-to-x[35,11,0]: - x[35,0] + z[35,11,0] <= 0
 (3)bonding-z-to-x[35,11,1]: - x[35,1] + z[35,11,1] <= 0
 (3)bonding-z-to-x[35,6,0]: - x[35,0] + z[35,6,0] <= 0
 (3)bonding-z-to-x[35,6,1]: - x[35,1] + z[35,6,1] <= 0
 (3)bonding-z-to-x[36,13,0]: - x[36,0] + z[36,13,0] <= 0
 (3)bonding-z-to-x[36,13,1]: - x[36,1] + z[36,13,1] <= 0
 (3)bonding-z-to-x[36,4,0]: - x[36,0] + z[36,4,0] <= 0
 (3)bonding-z-to-x[36,4,1]: - x[36,1] + z[36,4,1] <= 0
 (3)bonding-z-to-x[37,3,0]: - x[37,0] + z[37,3,0] <= 0
 (3)bonding-z-to-x[37,3,1]: - x[37,1] + z[37,3,1] <= 0
 (3)bonding-z-to-x[40,4,0]: - x[40,0] + z[40,4,0] <= 0
 (3)bonding-z-to-x[40,4,1]: - x[40,1] + z[40,4,1] <= 0
 (3)bonding-z-to-x[40,3,0]: - x[40,0] + z[40,3,0] <= 0
 (3)bonding-z-to-x[40,3,1]: - x[40,1] + z[40,3,1] <= 0
 (3)bonding-z-to-x[41,14,0]: - x[41,0] + z[41,14,0] <= 0
 (3)bonding-z-to-x[41,14,1]: - x[41,1] + z[41,14,1] <= 0
 (3)bonding-z-to-x[41,4,0]: - x[41,0] + z[41,4,0] <= 0
 (3)bonding-z-to-x[41,4,1]: - x[41,1] + z[41,4,1] <= 0
 (3)bonding-z-to-x[41,3,0]: - x[41,0] + z[41,3,0] <= 0
 (3)bonding-z-to-x[41,3,1]: - x[41,1] + z[41,3,1] <= 0
 (3)bonding-z-to-x[42,4,0]: - x[42,0] + z[42,4,0] <= 0
 (3)bonding-z-to-x[42,4,1]: - x[42,1] + z[42,4,1] <= 0
 (3)bonding-z-to-x[42,3,0]: - x[42,0] + z[42,3,0] <= 0
 (3)bonding-z-to-x[42,3,1]: - x[42,1] + z[42,3,1] <= 0
 (3)bonding-z-to-x[43,14,0]: - x[43,0] + z[43,14,0] <= 0
 (3)bonding-z-to-x[43,14,1]: - x[43,1] + z[43,14,1] <= 0
 (3)bonding-z-to-x[43,3,0]: - x[43,0] + z[43,3,0] <= 0
 (3)bonding-z-to-x[43,3,1]: - x[43,1] + z[43,3,1] <= 0
 (3)bonding-z-to-x[43,4,0]: - x[43,0] + z[43,4,0] <= 0
 (3)bonding-z-to-x[43,4,1]: - x[43,1] + z[43,4,1] <= 0
 (4)bonding-z-to-x[0,1,0]: - x[1,0] + z[0,1,0] <= 0
 (4)bonding-z-to-x[0,1,1]: - x[1,1] + z[0,1,1] <= 0
 (4)bonding-z-to-x[0,8,0]: - x[8,0] + z[0,8,0] <= 0
 (4)bonding-z-to-x[0,8,1]: - x[8,1] + z[0,8,1] <= 0
 (4)bonding-z-to-x[1,9,0]: - x[9,0] + z[1,9,0] <= 0
 (4)bonding-z-to-x[1,9,1]: - x[9,1] + z[1,9,1] <= 0
 (4)bonding-z-to-x[2,0,0]: - x[0,0] + z[2,0,0] <= 0
 (4)bonding-z-to-x[2,0,1]: - x[0,1] + z[2,0,1] <= 0
 (4)bonding-z-to-x[3,6,0]: - x[6,0] + z[3,6,0] <= 0
 (4)bonding-z-to-x[3,6,1]: - x[6,1] + z[3,6,1] <= 0
 (4)bonding-z-to-x[3,5,0]: - x[5,0] + z[3,5,0] <= 0
 (4)bonding-z-to-x[3,5,1]: - x[5,1] + z[3,5,1] <= 0
 (4)bonding-z-to-x[3,9,0]: - x[9,0] + z[3,9,0] <= 0
 (4)bonding-z-to-x[3,9,1]: - x[9,1] + z[3,9,1] <= 0
 (4)bonding-z-to-x[4,3,0]: - x[3,0] + z[4,3,0] <= 0
 (4)bonding-z-to-x[4,3,1]: - x[3,1] + z[4,3,1] <= 0
 (4)bonding-z-to-x[4,8,0]: - x[8,0] + z[4,8,0] <= 0
 (4)bonding-z-to-x[4,8,1]: - x[8,1] + z[4,8,1] <= 0
 (4)bonding-z-to-x[5,7,0]: - x[7,0] + z[5,7,0] <= 0
 (4)bonding-z-to-x[5,7,1]: - x[7,1] + z[5,7,1] <= 0
 (4)bonding-z-to-x[6,9,0]: - x[9,0] + z[6,9,0] <= 0
 (4)bonding-z-to-x[6,9,1]: - x[9,1] + z[6,9,1] <= 0
 (4)bonding-z-to-x[8,7,0]: - x[7,0] + z[8,7,0] <= 0
 (4)bonding-z-to-x[8,7,1]: - x[7,1] + z[8,7,1] <= 0
 (4)bonding-z-to-x[9,7,0]: - x[7,0] + z[9,7,0] <= 0
 (4)bonding-z-to-x[9,7,1]: - x[7,1] + z[9,7,1] <= 0
 (4)bonding-z-to-x[10,0,0]: - x[0,0] + z[10,0,0] <= 0
 (4)bonding-z-to-x[10,0,1]: - x[0,1] + z[10,0,1] <= 0
 (4)bonding-z-to-x[11,6,0]: - x[6,0] + z[11,6,0] <= 0
 (4)bonding-z-to-x[11,6,1]: - x[6,1] + z[11,6,1] <= 0
 (4)bonding-z-to-x[12,4,0]: - x[4,0] + z[12,4,0] <= 0
 (4)bonding-z-to-x[12,4,1]: - x[4,1] + z[12,4,1] <= 0
 (4)bonding-z-to-x[13,4,0]: - x[4,0] + z[13,4,0] <= 0
 (4)bonding-z-to-x[13,4,1]: - x[4,1] + z[13,4,1] <= 0
 (4)bonding-z-to-x[14,4,0]: - x[4,0] + z[14,4,0] <= 0
 (4)bonding-z-to-x[14,4,1]: - x[4,1] + z[14,4,1] <= 0
 (4)bonding-z-to-x[15,4,0]: - x[4,0] + z[15,4,0] <= 0
 (4)bonding-z-to-x[15,4,1]: - x[4,1] + z[15,4,1] <= 0
 (4)bonding-z-to-x[16,18,0]: - x[18,0] + z[16,18,0] <= 0
 (4)bonding-z-to-x[16,18,1]: - x[18,1] + z[16,18,1] <= 0
 (4)bonding-z-to-x[16,17,0]: - x[17,0] + z[16,17,0] <= 0
 (4)bonding-z-to-x[16,17,1]: - x[17,1] + z[16,17,1] <= 0
 (4)bonding-z-to-x[16,2,0]: - x[2,0] + z[16,2,0] <= 0
 (4)bonding-z-to-x[16,2,1]: - x[2,1] + z[16,2,1] <= 0
 (4)bonding-z-to-x[16,0,0]: - x[0,0] + z[16,0,0] <= 0
 (4)bonding-z-to-x[16,0,1]: - x[0,1] + z[16,0,1] <= 0
 (4)bonding-z-to-x[17,0,0]: - x[0,0] + z[17,0,0] <= 0
 (4)bonding-z-to-x[17,0,1]: - x[0,1] + z[17,0,1] <= 0
 (4)bonding-z-to-x[18,10,0]: - x[10,0] + z[18,10,0] <= 0
 (4)bonding-z-to-x[18,10,1]: - x[10,1] + z[18,10,1] <= 0
 (4)bonding-z-to-x[18,0,0]: - x[0,0] + z[18,0,0] <= 0
 (4)bonding-z-to-x[18,0,1]: - x[0,1] + z[18,0,1] <= 0
 (4)bonding-z-to-x[19,2,0]: - x[2,0] + z[19,2,0] <= 0
 (4)bonding-z-to-x[19,2,1]: - x[2,1] + z[19,2,1] <= 0
 (4)bonding-z-to-x[21,13,0]: - x[13,0] + z[21,13,0] <= 0
 (4)bonding-z-to-x[21,13,1]: - x[13,1] + z[21,13,1] <= 0
 (4)bonding-z-to-x[21,4,0]: - x[4,0] + z[21,4,0] <= 0
 (4)bonding-z-to-x[21,4,1]: - x[4,1] + z[21,4,1] <= 0
 (4)bonding-z-to-x[21,3,0]: - x[3,0] + z[21,3,0] <= 0
 (4)bonding-z-to-x[21,3,1]: - x[3,1] + z[21,3,1] <= 0
 (4)bonding-z-to-x[21,5,0]: - x[5,0] + z[21,5,0] <= 0
 (4)bonding-z-to-x[21,5,1]: - x[5,1] + z[21,5,1] <= 0
 (4)bonding-z-to-x[23,14,0]: - x[14,0] + z[23,14,0] <= 0
 (4)bonding-z-to-x[23,14,1]: - x[14,1] + z[23,14,1] <= 0
 (4)bonding-z-to-x[23,4,0]: - x[4,0] + z[23,4,0] <= 0
 (4)bonding-z-to-x[23,4,1]: - x[4,1] + z[23,4,1] <= 0
 (4)bonding-z-to-x[23,5,0]: - x[5,0] + z[23,5,0] <= 0
 (4)bonding-z-to-x[23,5,1]: - x[5,1] + z[23,5,1] <= 0
 (4)bonding-z-to-x[25,13,0]: - x[13,0] + z[25,13,0] <= 0
 (4)bonding-z-to-x[25,13,1]: - x[13,1] + z[25,13,1] <= 0
 (4)bonding-z-to-x[25,4,0]: - x[4,0] + z[25,4,0] <= 0
 (4)bonding-z-to-x[25,4,1]: - x[4,1] + z[25,4,1] <= 0
 (4)bonding-z-to-x[26,4,0]: - x[4,0] + z[26,4,0] <= 0
 (4)bonding-z-to-x[26,4,1]: - x[4,1] + z[26,4,1] <= 0
 (4)bonding-z-to-x[27,14,0]: - x[14,0] + z[27,14,0] <= 0
 (4)bonding-z-to-x[27,14,1]: - x[14,1] + z[27,14,1] <= 0
 (4)bonding-z-to-x[27,4,0]: - x[4,0] + z[27,4,0] <= 0
 (4)bonding-z-to-x[27,4,1]: - x[4,1] + z[27,4,1] <= 0
 (4)bonding-z-to-x[28,4,0]: - x[4,0] + z[28,4,0] <= 0
 (4)bonding-z-to-x[28,4,1]: - x[4,1] + z[28,4,1] <= 0
 (4)bonding-z-to-x[29,31,0]: - x[31,0] + z[29,31,0] <= 0
 (4)bonding-z-to-x[29,31,1]: - x[31,1] + z[29,31,1] <= 0
 (4)bonding-z-to-x[29,30,0]: - x[30,0] + z[29,30,0] <= 0
 (4)bonding-z-to-x[29,30,1]: - x[30,1] + z[29,30,1] <= 0
 (4)bonding-z-to-x[29,4,0]: - x[4,0] + z[29,4,0] <= 0
 (4)bonding-z-to-x[29,4,1]: - x[4,1] + z[29,4,1] <= 0
 (4)bonding-z-to-x[30,4,0]: - x[4,0] + z[30,4,0] <= 0
 (4)bonding-z-to-x[30,4,1]: - x[4,1] + z[30,4,1] <= 0
 (4)bonding-z-to-x[31,12,0]: - x[12,0] + z[31,12,0] <= 0
 (4)bonding-z-to-x[31,12,1]: - x[12,1] + z[31,12,1] <= 0
 (4)bonding-z-to-x[31,4,0]: - x[4,0] + z[31,4,0] <= 0
 (4)bonding-z-to-x[31,4,1]: - x[4,1] + z[31,4,1] <= 0
 (4)bonding-z-to-x[32,13,0]: - x[13,0] + z[32,13,0] <= 0
 (4)bonding-z-to-x[32,13,1]: - x[13,1] + z[32,13,1] <= 0
 (4)bonding-z-to-x[32,4,0]: - x[4,0] + z[32,4,0] <= 0
 (4)bonding-z-to-x[32,4,1]: - x[4,1] + z[32,4,1] <= 0
 (4)bonding-z-to-x[33,14,0]: - x[14,0] + z[33,14,0] <= 0
 (4)bonding-z-to-x[33,14,1]: - x[14,1] + z[33,14,1] <= 0
 (4)bonding-z-to-x[33,4,0]: - x[4,0] + z[33,4,0] <= 0
 (4)bonding-z-to-x[33,4,1]: - x[4,1] + z[33,4,1] <= 0
 (4)bonding-z-to-x[34,13,0]: - x[13,0] + z[34,13,0] <= 0
 (4)bonding-z-to-x[34,13,1]: - x[13,1] + z[34,13,1] <= 0
 (4)bonding-z-to-x[34,4,0]: - x[4,0] + z[34,4,0] <= 0
 (4)bonding-z-to-x[34,4,1]: - x[4,1] + z[34,4,1] <= 0
 (4)bonding-z-to-x[35,11,0]: - x[11,0] + z[35,11,0] <= 0
 (4)bonding-z-to-x[35,11,1]: - x[11,1] + z[35,11,1] <= 0
 (4)bonding-z-to-x[35,6,0]: - x[6,0] + z[35,6,0] <= 0
 (4)bonding-z-to-x[35,6,1]: - x[6,1] + z[35,6,1] <= 0
 (4)bonding-z-to-x[36,13,0]: - x[13,0] + z[36,13,0] <= 0
 (4)bonding-z-to-x[36,13,1]: - x[13,1] + z[36,13,1] <= 0
 (4)bonding-z-to-x[36,4,0]: - x[4,0] + z[36,4,0] <= 0
 (4)bonding-z-to-x[36,4,1]: - x[4,1] + z[36,4,1] <= 0
 (4)bonding-z-to-x[37,3,0]: - x[3,0] + z[37,3,0] <= 0
 (4)bonding-z-to-x[37,3,1]: - x[3,1] + z[37,3,1] <= 0
 (4)bonding-z-to-x[40,4,0]: - x[4,0] + z[40,4,0] <= 0
 (4)bonding-z-to-x[40,4,1]: - x[4,1] + z[40,4,1] <= 0
 (4)bonding-z-to-x[40,3,0]: - x[3,0] + z[40,3,0] <= 0
 (4)bonding-z-to-x[40,3,1]: - x[3,1] + z[40,3,1] <= 0
 (4)bonding-z-to-x[41,14,0]: - x[14,0] + z[41,14,0] <= 0
 (4)bonding-z-to-x[41,14,1]: - x[14,1] + z[41,14,1] <= 0
 (4)bonding-z-to-x[41,4,0]: - x[4,0] + z[41,4,0] <= 0
 (4)bonding-z-to-x[41,4,1]: - x[4,1] + z[41,4,1] <= 0
 (4)bonding-z-to-x[41,3,0]: - x[3,0] + z[41,3,0] <= 0
 (4)bonding-z-to-x[41,3,1]: - x[3,1] + z[41,3,1] <= 0
 (4)bonding-z-to-x[42,4,0]: - x[4,0] + z[42,4,0] <= 0
 (4)bonding-z-to-x[42,4,1]: - x[4,1] + z[42,4,1] <= 0
 (4)bonding-z-to-x[42,3,0]: - x[3,0] + z[42,3,0] <= 0
 (4)bonding-z-to-x[42,3,1]: - x[3,1] + z[42,3,1] <= 0
 (4)bonding-z-to-x[43,14,0]: - x[14,0] + z[43,14,0] <= 0
 (4)bonding-z-to-x[43,14,1]: - x[14,1] + z[43,14,1] <= 0
 (4)bonding-z-to-x[43,3,0]: - x[3,0] + z[43,3,0] <= 0
 (4)bonding-z-to-x[43,3,1]: - x[3,1] + z[43,3,1] <= 0
 (4)bonding-z-to-x[43,4,0]: - x[4,0] + z[43,4,0] <= 0
 (4)bonding-z-to-x[43,4,1]: - x[4,1] + z[43,4,1] <= 0
 (5)bonding-z-to-x[0,1,0]: x[0,0] + x[1,0] - z[0,1,0] <= 1
 (5)bonding-z-to-x[0,1,1]: x[0,1] + x[1,1] - z[0,1,1] <= 1
 (5)bonding-z-to-x[0,8,0]: x[0,0] + x[8,0] - z[0,8,0] <= 1
 (5)bonding-z-to-x[0,8,1]: x[0,1] + x[8,1] - z[0,8,1] <= 1
 (5)bonding-z-to-x[1,9,0]: x[1,0] + x[9,0] - z[1,9,0] <= 1
 (5)bonding-z-to-x[1,9,1]: x[1,1] + x[9,1] - z[1,9,1] <= 1
 (5)bonding-z-to-x[2,0,0]: x[0,0] + x[2,0] - z[2,0,0] <= 1
 (5)bonding-z-to-x[2,0,1]: x[0,1] + x[2,1] - z[2,0,1] <= 1
 (5)bonding-z-to-x[3,6,0]: x[3,0] + x[6,0] - z[3,6,0] <= 1
 (5)bonding-z-to-x[3,6,1]: x[3,1] + x[6,1] - z[3,6,1] <= 1
 (5)bonding-z-to-x[3,5,0]: x[3,0] + x[5,0] - z[3,5,0] <= 1
 (5)bonding-z-to-x[3,5,1]: x[3,1] + x[5,1] - z[3,5,1] <= 1
 (5)bonding-z-to-x[3,9,0]: x[3,0] + x[9,0] - z[3,9,0] <= 1
 (5)bonding-z-to-x[3,9,1]: x[3,1] + x[9,1] - z[3,9,1] <= 1
 (5)bonding-z-to-x[4,3,0]: x[3,0] + x[4,0] - z[4,3,0] <= 1
 (5)bonding-z-to-x[4,3,1]: x[3,1] + x[4,1] - z[4,3,1] <= 1
 (5)bonding-z-to-x[4,8,0]: x[4,0] + x[8,0] - z[4,8,0] <= 1
 (5)bonding-z-to-x[4,8,1]: x[4,1] + x[8,1] - z[4,8,1] <= 1
 (5)bonding-z-to-x[5,7,0]: x[5,0] + x[7,0] - z[5,7,0] <= 1
 (5)bonding-z-to-x[5,7,1]: x[5,1] + x[7,1] - z[5,7,1] <= 1
 (5)bonding-z-to-x[6,9,0]: x[6,0] + x[9,0] - z[6,9,0] <= 1
 (5)bonding-z-to-x[6,9,1]: x[6,1] + x[9,1] - z[6,9,1] <= 1
 (5)bonding-z-to-x[8,7,0]: x[7,0] + x[8,0] - z[8,7,0] <= 1
 (5)bonding-z-to-x[8,7,1]: x[7,1] + x[8,1] - z[8,7,1] <= 1
 (5)bonding-z-to-x[9,7,0]: x[7,0] + x[9,0] - z[9,7,0] <= 1
 (5)bonding-z-to-x[9,7,1]: x[7,1] + x[9,1] - z[9,7,1] <= 1
 (5)bonding-z-to-x[10,0,0]: x[0,0] + x[10,0] - z[10,0,0] <= 1
 (5)bonding-z-to-x[10,0,1]: x[0,1] + x[10,1] - z[10,0,1] <= 1
 (5)bonding-z-to-x[11,6,0]: x[6,0] + x[11,0] - z[11,6,0] <= 1
 (5)bonding-z-to-x[11,6,1]: x[6,1] + x[11,1] - z[11,6,1] <= 1
 (5)bonding-z-to-x[12,4,0]: x[4,0] + x[12,0] - z[12,4,0] <= 1
 (5)bonding-z-to-x[12,4,1]: x[4,1] + x[12,1] - z[12,4,1] <= 1
 (5)bonding-z-to-x[13,4,0]: x[4,0] + x[13,0] - z[13,4,0] <= 1
 (5)bonding-z-to-x[13,4,1]: x[4,1] + x[13,1] - z[13,4,1] <= 1
 (5)bonding-z-to-x[14,4,0]: x[4,0] + x[14,0] - z[14,4,0] <= 1
 (5)bonding-z-to-x[14,4,1]: x[4,1] + x[14,1] - z[14,4,1] <= 1
 (5)bonding-z-to-x[15,4,0]: x[4,0] + x[15,0] - z[15,4,0] <= 1
 (5)bonding-z-to-x[15,4,1]: x[4,1] + x[15,1] - z[15,4,1] <= 1
 (5)bonding-z-to-x[16,18,0]: x[16,0] + x[18,0] - z[16,18,0] <= 1
 (5)bonding-z-to-x[16,18,1]: x[16,1] + x[18,1] - z[16,18,1] <= 1
 (5)bonding-z-to-x[16,17,0]: x[16,0] + x[17,0] - z[16,17,0] <= 1
 (5)bonding-z-to-x[16,17,1]: x[16,1] + x[17,1] - z[16,17,1] <= 1
 (5)bonding-z-to-x[16,2,0]: x[2,0] + x[16,0] - z[16,2,0] <= 1
 (5)bonding-z-to-x[16,2,1]: x[2,1] + x[16,1] - z[16,2,1] <= 1
 (5)bonding-z-to-x[16,0,0]: x[0,0] + x[16,0] - z[16,0,0] <= 1
 (5)bonding-z-to-x[16,0,1]: x[0,1] + x[16,1] - z[16,0,1] <= 1
 (5)bonding-z-to-x[17,0,0]: x[0,0] + x[17,0] - z[17,0,0] <= 1
 (5)bonding-z-to-x[17,0,1]: x[0,1] + x[17,1] - z[17,0,1] <= 1
 (5)bonding-z-to-x[18,10,0]: x[10,0] + x[18,0] - z[18,10,0] <= 1
 (5)bonding-z-to-x[18,10,1]: x[10,1] + x[18,1] - z[18,10,1] <= 1
 (5)bonding-z-to-x[18,0,0]: x[0,0] + x[18,0] - z[18,0,0] <= 1
 (5)bonding-z-to-x[18,0,1]: x[0,1] + x[18,1] - z[18,0,1] <= 1
 (5)bonding-z-to-x[19,2,0]: x[2,0] + x[19,0] - z[19,2,0] <= 1
 (5)bonding-z-to-x[19,2,1]: x[2,1] + x[19,1] - z[19,2,1] <= 1
 (5)bonding-z-to-x[21,13,0]: x[13,0] + x[21,0] - z[21,13,0] <= 1
 (5)bonding-z-to-x[21,13,1]: x[13,1] + x[21,1] - z[21,13,1] <= 1
 (5)bonding-z-to-x[21,4,0]: x[4,0] + x[21,0] - z[21,4,0] <= 1
 (5)bonding-z-to-x[21,4,1]: x[4,1] + x[21,1] - z[21,4,1] <= 1
 (5)bonding-z-to-x[21,3,0]: x[3,0] + x[21,0] - z[21,3,0] <= 1
 (5)bonding-z-to-x[21,3,1]: x[3,1] + x[21,1] - z[21,3,1] <= 1
 (5)bonding-z-to-x[21,5,0]: x[5,0] + x[21,0] - z[21,5,0] <= 1
 (5)bonding-z-to-x[21,5,1]: x[5,1] + x[21,1] - z[21,5,1] <= 1
 (5)bonding-z-to-x[23,14,0]: x[14,0] + x[23,0] - z[23,14,0] <= 1
 (5)bonding-z-to-x[23,14,1]: x[14,1] + x[23,1] - z[23,14,1] <= 1
 (5)bonding-z-to-x[23,4,0]: x[4,0] + x[23,0] - z[23,4,0] <= 1
 (5)bonding-z-to-x[23,4,1]: x[4,1] + x[23,1] - z[23,4,1] <= 1
 (5)bonding-z-to-x[23,5,0]: x[5,0] + x[23,0] - z[23,5,0] <= 1
 (5)bonding-z-to-x[23,5,1]: x[5,1] + x[23,1] - z[23,5,1] <= 1
 (5)bonding-z-to-x[25,13,0]: x[13,0] + x[25,0] - z[25,13,0] <= 1
 (5)bonding-z-to-x[25,13,1]: x[13,1] + x[25,1] - z[25,13,1] <= 1
 (5)bonding-z-to-x[25,4,0]: x[4,0] + x[25,0] - z[25,4,0] <= 1
 (5)bonding-z-to-x[25,4,1]: x[4,1] + x[25,1] - z[25,4,1] <= 1
 (5)bonding-z-to-x[26,4,0]: x[4,0] + x[26,0] - z[26,4,0] <= 1
 (5)bonding-z-to-x[26,4,1]: x[4,1] + x[26,1] - z[26,4,1] <= 1
 (5)bonding-z-to-x[27,14,0]: x[14,0] + x[27,0] - z[27,14,0] <= 1
 (5)bonding-z-to-x[27,14,1]: x[14,1] + x[27,1] - z[27,14,1] <= 1
 (5)bonding-z-to-x[27,4,0]: x[4,0] + x[27,0] - z[27,4,0] <= 1
 (5)bonding-z-to-x[27,4,1]: x[4,1] + x[27,1] - z[27,4,1] <= 1
 (5)bonding-z-to-x[28,4,0]: x[4,0] + x[28,0] - z[28,4,0] <= 1
 (5)bonding-z-to-x[28,4,1]: x[4,1] + x[28,1] - z[28,4,1] <= 1
 (5)bonding-z-to-x[29,31,0]: x[29,0] + x[31,0] - z[29,31,0] <= 1
 (5)bonding-z-to-x[29,31,1]: x[29,1] + x[31,1] - z[29,31,1] <= 1
 (5)bonding-z-to-x[29,30,0]: x[29,0] + x[30,0] - z[29,30,0] <= 1
 (5)bonding-z-to-x[29,30,1]: x[29,1] + x[30,1] - z[29,30,1] <= 1
 (5)bonding-z-to-x[29,4,0]: x[4,0] + x[29,0] - z[29,4,0] <= 1
 (5)bonding-z-to-x[29,4,1]: x[4,1] + x[29,1] - z[29,4,1] <= 1
 (5)bonding-z-to-x[30,4,0]: x[4,0] + x[30,0] - z[30,4,0] <= 1
 (5)bonding-z-to-x[30,4,1]: x[4,1] + x[30,1] - z[30,4,1] <= 1
 (5)bonding-z-to-x[31,12,0]: x[12,0] + x[31,0] - z[31,12,0] <= 1
 (5)bonding-z-to-x[31,12,1]: x[12,1] + x[31,1] - z[31,12,1] <= 1
 (5)bonding-z-to-x[31,4,0]: x[4,0] + x[31,0] - z[31,4,0] <= 1
 (5)bonding-z-to-x[31,4,1]: x[4,1] + x[31,1] - z[31,4,1] <= 1
 (5)bonding-z-to-x[32,13,0]: x[13,0] + x[32,0] - z[32,13,0] <= 1
 (5)bonding-z-to-x[32,13,1]: x[13,1] + x[32,1] - z[32,13,1] <= 1
 (5)bonding-z-to-x[32,4,0]: x[4,0] + x[32,0] - z[32,4,0] <= 1
 (5)bonding-z-to-x[32,4,1]: x[4,1] + x[32,1] - z[32,4,1] <= 1
 (5)bonding-z-to-x[33,14,0]: x[14,0] + x[33,0] - z[33,14,0] <= 1
 (5)bonding-z-to-x[33,14,1]: x[14,1] + x[33,1] - z[33,14,1] <= 1
 (5)bonding-z-to-x[33,4,0]: x[4,0] + x[33,0] - z[33,4,0] <= 1
 (5)bonding-z-to-x[33,4,1]: x[4,1] + x[33,1] - z[33,4,1] <= 1
 (5)bonding-z-to-x[34,13,0]: x[13,0] + x[34,0] - z[34,13,0] <= 1
 (5)bonding-z-to-x[34,13,1]: x[13,1] + x[34,1] - z[34,13,1] <= 1
 (5)bonding-z-to-x[34,4,0]: x[4,0] + x[34,0] - z[34,4,0] <= 1
 (5)bonding-z-to-x[34,4,1]: x[4,1] + x[34,1] - z[34,4,1] <= 1
 (5)bonding-z-to-x[35,11,0]: x[11,0] + x[35,0] - z[35,11,0] <= 1
 (5)bonding-z-to-x[35,11,1]: x[11,1] + x[35,1] - z[35,11,1] <= 1
 (5)bonding-z-to-x[35,6,0]: x[6,0] + x[35,0] - z[35,6,0] <= 1
 (5)bonding-z-to-x[35,6,1]: x[6,1] + x[35,1] - z[35,6,1] <= 1
 (5)bonding-z-to-x[36,13,0]: x[13,0] + x[36,0] - z[36,13,0] <= 1
 (5)bonding-z-to-x[36,13,1]: x[13,1] + x[36,1] - z[36,13,1] <= 1
 (5)bonding-z-to-x[36,4,0]: x[4,0] + x[36,0] - z[36,4,0] <= 1
 (5)bonding-z-to-x[36,4,1]: x[4,1] + x[36,1] - z[36,4,1] <= 1
 (5)bonding-z-to-x[37,3,0]: x[3,0] + x[37,0] - z[37,3,0] <= 1
 (5)bonding-z-to-x[37,3,1]: x[3,1] + x[37,1] - z[37,3,1] <= 1
 (5)bonding-z-to-x[40,4,0]: x[4,0] + x[40,0] - z[40,4,0] <= 1
 (5)bonding-z-to-x[40,4,1]: x[4,1] + x[40,1] - z[40,4,1] <= 1
 (5)bonding-z-to-x[40,3,0]: x[3,0] + x[40,0] - z[40,3,0] <= 1
 (5)bonding-z-to-x[40,3,1]: x[3,1] + x[40,1] - z[40,3,1] <= 1
 (5)bonding-z-to-x[41,14,0]: x[14,0] + x[41,0] - z[41,14,0] <= 1
 (5)bonding-z-to-x[41,14,1]: x[14,1] + x[41,1] - z[41,14,1] <= 1
 (5)bonding-z-to-x[41,4,0]: x[4,0] + x[41,0] - z[41,4,0] <= 1
 (5)bonding-z-to-x[41,4,1]: x[4,1] + x[41,1] - z[41,4,1] <= 1
 (5)bonding-z-to-x[41,3,0]: x[3,0] + x[41,0] - z[41,3,0] <= 1
 (5)bonding-z-to-x[41,3,1]: x[3,1] + x[41,1] - z[41,3,1] <= 1
 (5)bonding-z-to-x[42,4,0]: x[4,0] + x[42,0] - z[42,4,0] <= 1
 (5)bonding-z-to-x[42,4,1]: x[4,1] + x[42,1] - z[42,4,1] <= 1
 (5)bonding-z-to-x[42,3,0]: x[3,0] + x[42,0] - z[42,3,0] <= 1
 (5)bonding-z-to-x[42,3,1]: x[3,1] + x[42,1] - z[42,3,1] <= 1
 (5)bonding-z-to-x[43,14,0]: x[14,0] + x[43,0] - z[43,14,0] <= 1
 (5)bonding-z-to-x[43,14,1]: x[14,1] + x[43,1] - z[43,14,1] <= 1
 (5)bonding-z-to-x[43,3,0]: x[3,0] + x[43,0] - z[43,3,0] <= 1
 (5)bonding-z-to-x[43,3,1]: x[3,1] + x[43,1] - z[43,3,1] <= 1
 (5)bonding-z-to-x[43,4,0]: x[4,0] + x[43,0] - z[43,4,0] <= 1
 (5)bonding-z-to-x[43,4,1]: x[4,1] + x[43,1] - z[43,4,1] <= 1
 (6)bonding-y-to-z[0,1]: - z[0,1,0] - z[0,1,1] + y[0,1] = 0
 (6)bonding-y-to-z[0,8]: - z[0,8,0] - z[0,8,1] + y[0,8] = 0
 (6)bonding-y-to-z[1,9]: - z[1,9,0] - z[1,9,1] + y[1,9] = 0
 (6)bonding-y-to-z[2,0]: - z[2,0,0] - z[2,0,1] + y[2,0] = 0
 (6)bonding-y-to-z[3,6]: - z[3,6,0] - z[3,6,1] + y[3,6] = 0
 (6)bonding-y-to-z[3,5]: - z[3,5,0] - z[3,5,1] + y[3,5] = 0
 (6)bonding-y-to-z[3,9]: - z[3,9,0] - z[3,9,1] + y[3,9] = 0
 (6)bonding-y-to-z[4,3]: - z[4,3,0] - z[4,3,1] + y[4,3] = 0
 (6)bonding-y-to-z[4,8]: - z[4,8,0] - z[4,8,1] + y[4,8] = 0
 (6)bonding-y-to-z[5,7]: - z[5,7,0] - z[5,7,1] + y[5,7] = 0
 (6)bonding-y-to-z[6,9]: - z[6,9,0] - z[6,9,1] + y[6,9] = 0
 (6)bonding-y-to-z[8,7]: - z[8,7,0] - z[8,7,1] + y[8,7] = 0
 (6)bonding-y-to-z[9,7]: - z[9,7,0] - z[9,7,1] + y[9,7] = 0
 (6)bonding-y-to-z[10,0]: - z[10,0,0] - z[10,0,1] + y[10,0] = 0
 (6)bonding-y-to-z[11,6]: - z[11,6,0] - z[11,6,1] + y[11,6] = 0
 (6)bonding-y-to-z[12,4]: - z[12,4,0] - z[12,4,1] + y[12,4] = 0
 (6)bonding-y-to-z[13,4]: - z[13,4,0] - z[13,4,1] + y[13,4] = 0
 (6)bonding-y-to-z[14,4]: - z[14,4,0] - z[14,4,1] + y[14,4] = 0
 (6)bonding-y-to-z[15,4]: - z[15,4,0] - z[15,4,1] + y[15,4] = 0
 (6)bonding-y-to-z[16,18]: - z[16,18,0] - z[16,18,1] + y[16,18] = 0
 (6)bonding-y-to-z[16,17]: - z[16,17,0] - z[16,17,1] + y[16,17] = 0
 (6)bonding-y-to-z[16,2]: - z[16,2,0] - z[16,2,1] + y[16,2] = 0
 (6)bonding-y-to-z[16,0]: - z[16,0,0] - z[16,0,1] + y[16,0] = 0
 (6)bonding-y-to-z[17,0]: - z[17,0,0] - z[17,0,1] + y[17,0] = 0
 (6)bonding-y-to-z[18,10]: - z[18,10,0] - z[18,10,1] + y[18,10] = 0
 (6)bonding-y-to-z[18,0]: - z[18,0,0] - z[18,0,1] + y[18,0] = 0
 (6)bonding-y-to-z[19,2]: - z[19,2,0] - z[19,2,1] + y[19,2] = 0
 (6)bonding-y-to-z[21,13]: - z[21,13,0] - z[21,13,1] + y[21,13] = 0
 (6)bonding-y-to-z[21,4]: - z[21,4,0] - z[21,4,1] + y[21,4] = 0
 (6)bonding-y-to-z[21,3]: - z[21,3,0] - z[21,3,1] + y[21,3] = 0
 (6)bonding-y-to-z[21,5]: - z[21,5,0] - z[21,5,1] + y[21,5] = 0
 (6)bonding-y-to-z[23,14]: - z[23,14,0] - z[23,14,1] + y[23,14] = 0
 (6)bonding-y-to-z[23,4]: - z[23,4,0] - z[23,4,1] + y[23,4] = 0
 (6)bonding-y-to-z[23,5]: - z[23,5,0] - z[23,5,1] + y[23,5] = 0
 (6)bonding-y-to-z[25,13]: - z[25,13,0] - z[25,13,1] + y[25,13] = 0
 (6)bonding-y-to-z[25,4]: - z[25,4,0] - z[25,4,1] + y[25,4] = 0
 (6)bonding-y-to-z[26,4]: - z[26,4,0] - z[26,4,1] + y[26,4] = 0
 (6)bonding-y-to-z[27,14]: - z[27,14,0] - z[27,14,1] + y[27,14] = 0
 (6)bonding-y-to-z[27,4]: - z[27,4,0] - z[27,4,1] + y[27,4] = 0
 (6)bonding-y-to-z[28,4]: - z[28,4,0] - z[28,4,1] + y[28,4] = 0
 (6)bonding-y-to-z[29,31]: - z[29,31,0] - z[29,31,1] + y[29,31] = 0
 (6)bonding-y-to-z[29,30]: - z[29,30,0] - z[29,30,1] + y[29,30] = 0
 (6)bonding-y-to-z[29,4]: - z[29,4,0] - z[29,4,1] + y[29,4] = 0
 (6)bonding-y-to-z[30,4]: - z[30,4,0] - z[30,4,1] + y[30,4] = 0
 (6)bonding-y-to-z[31,12]: - z[31,12,0] - z[31,12,1] + y[31,12] = 0
 (6)bonding-y-to-z[31,4]: - z[31,4,0] - z[31,4,1] + y[31,4] = 0
 (6)bonding-y-to-z[32,13]: - z[32,13,0] - z[32,13,1] + y[32,13] = 0
 (6)bonding-y-to-z[32,4]: - z[32,4,0] - z[32,4,1] + y[32,4] = 0
 (6)bonding-y-to-z[33,14]: - z[33,14,0] - z[33,14,1] + y[33,14] = 0
 (6)bonding-y-to-z[33,4]: - z[33,4,0] - z[33,4,1] + y[33,4] = 0
 (6)bonding-y-to-z[34,13]: - z[34,13,0] - z[34,13,1] + y[34,13] = 0
 (6)bonding-y-to-z[34,4]: - z[34,4,0] - z[34,4,1] + y[34,4] = 0
 (6)bonding-y-to-z[35,11]: - z[35,11,0] - z[35,11,1] + y[35,11] = 0
 (6)bonding-y-to-z[35,6]: - z[35,6,0] - z[35,6,1] + y[35,6] = 0
 (6)bonding-y-to-z[36,13]: - z[36,13,0] - z[36,13,1] + y[36,13] = 0
 (6)bonding-y-to-z[36,4]: - z[36,4,0] - z[36,4,1] + y[36,4] = 0
 (6)bonding-y-to-z[37,3]: - z[37,3,0] - z[37,3,1] + y[37,3] = 0
 (6)bonding-y-to-z[40,4]: - z[40,4,0] - z[40,4,1] + y[40,4] = 0
 (6)bonding-y-to-z[40,3]: - z[40,3,0] - z[40,3,1] + y[40,3] = 0
 (6)bonding-y-to-z[41,14]: - z[41,14,0] - z[41,14,1] + y[41,14] = 0
 (6)bonding-y-to-z[41,4]: - z[41,4,0] - z[41,4,1] + y[41,4] = 0
 (6)bonding-y-to-z[41,3]: - z[41,3,0] - z[41,3,1] + y[41,3] = 0
 (6)bonding-y-to-z[42,4]: - z[42,4,0] - z[42,4,1] + y[42,4] = 0
 (6)bonding-y-to-z[42,3]: - z[42,3,0] - z[42,3,1] + y[42,3] = 0
 (6)bonding-y-to-z[43,14]: - z[43,14,0] - z[43,14,1] + y[43,14] = 0
 (6)bonding-y-to-z[43,3]: - z[43,3,0] - z[43,3,1] + y[43,3] = 0
 (6)bonding-y-to-z[43,4]: - z[43,4,0] - z[43,4,1] + y[43,4] = 0
 (7)bonding-x-to-entity-clusters[0,0]: x[0,0] = 1
 (7)bonding-x-to-entity-clusters[1,4]: x[4,1] = 1
 (7)bonding-x-to-entity-clusters[1,6]: x[6,1] = 1
 (8)bonding-y-to-communities[0,1]: y[0,1] = 1
 (8)bonding-y-to-communities[2,0]: y[2,0] = 1
 (8)bonding-y-to-communities[3,5]: y[3,5] = 1
 (8)bonding-y-to-communities[10,0]: y[10,0] = 1
 (8)bonding-y-to-communities[11,6]: y[11,6] = 1
 (8)bonding-y-to-communities[13,4]: y[13,4] = 1
 (8)bonding-y-to-communities[15,4]: y[15,4] = 1
 (8)bonding-y-to-communities[16,18]: y[16,18] = 1
 (8)bonding-y-to-communities[16,17]: y[16,17] = 1
 (8)bonding-y-to-communities[16,2]: y[16,2] = 1
 (8)bonding-y-to-communities[16,0]: y[16,0] = 1
 (8)bonding-y-to-communities[17,0]: y[17,0] = 1
 (8)bonding-y-to-communities[18,10]: y[18,10] = 1
 (8)bonding-y-to-communities[18,0]: y[18,0] = 1
 (8)bonding-y-to-communities[19,2]: y[19,2] = 1
 (8)bonding-y-to-communities[21,13]: y[21,13] = 1
 (8)bonding-y-to-communities[21,4]: y[21,4] = 1
 (8)bonding-y-to-communities[23,14]: y[23,14] = 1
 (8)bonding-y-to-communities[23,5]: y[23,5] = 1
 (8)bonding-y-to-communities[25,13]: y[25,13] = 1
 (8)bonding-y-to-communities[25,4]: y[25,4] = 1
 (8)bonding-y-to-communities[26,4]: y[26,4] = 1
 (8)bonding-y-to-communities[27,14]: y[27,14] = 1
 (8)bonding-y-to-communities[28,4]: y[28,4] = 1
 (8)bonding-y-to-communities[29,31]: y[29,31] = 1
 (8)bonding-y-to-communities[29,30]: y[29,30] = 1
 (8)bonding-y-to-communities[31,12]: y[31,12] = 1
 (8)bonding-y-to-communities[32,13]: y[32,13] = 1
 (8)bonding-y-to-communities[32,4]: y[32,4] = 1
 (8)bonding-y-to-communities[33,14]: y[33,14] = 1
 (8)bonding-y-to-communities[34,13]: y[34,13] = 1
 (8)bonding-y-to-communities[34,4]: y[34,4] = 1
 (8)bonding-y-to-communities[35,11]: y[35,11] = 1
 (8)bonding-y-to-communities[35,6]: y[35,6] = 1
 (8)bonding-y-to-communities[36,13]: y[36,13] = 1
 (8)bonding-y-to-communities[36,4]: y[36,4] = 1
 (8)bonding-y-to-communities[37,3]: y[37,3] = 1
 (8)bonding-y-to-communities[40,3]: y[40,3] = 1
 (8)bonding-y-to-communities[41,14]: y[41,14] = 1
 (8)bonding-y-to-communities[41,3]: y[41,3] = 1
 (8)bonding-y-to-communities[42,3]: y[42,3] = 1
 (8)bonding-y-to-communities[43,14]: y[43,14] = 1
 (8)bonding-y-to-communities[43,3]: y[43,3] = 1
Bounds
 Constant = 1
Binaries
 x[0,0] x[0,1] x[1,0] x[1,1] x[2,0] x[2,1] x[3,0] x[3,1] x[4,0] x[4,1]
 x[5,0] x[5,1] x[6,0] x[6,1] x[7,0] x[7,1] x[8,0] x[8,1] x[9,0] x[9,1]
 x[10,0] x[10,1] x[11,0] x[11,1] x[12,0] x[12,1] x[13,0] x[13,1] x[14,0]
 x[14,1] x[15,0] x[15,1] x[16,0] x[16,1] x[17,0] x[17,1] x[18,0] x[18,1]
 x[19,0] x[19,1] x[21,0] x[21,1] x[23,0] x[23,1] x[25,0] x[25,1] x[26,0]
 x[26,1] x[27,0] x[27,1] x[28,0] x[28,1] x[29,0] x[29,1] x[30,0] x[30,1]
 x[31,0] x[31,1] x[32,0] x[32,1] x[33,0] x[33,1] x[34,0] x[34,1] x[35,0]
 x[35,1] x[36,0] x[36,1] x[37,0] x[37,1] x[40,0] x[40,1] x[41,0] x[41,1]
 x[42,0] x[42,1] x[43,0] x[43,1] z[0,1,0] z[0,1,1] z[0,8,0] z[0,8,1]
 z[1,9,0] z[1,9,1] z[2,0,0] z[2,0,1] z[3,6,0] z[3,6,1] z[3,5,0] z[3,5,1]
 z[3,9,0] z[3,9,1] z[4,3,0] z[4,3,1] z[4,8,0] z[4,8,1] z[5,7,0] z[5,7,1]
 z[6,9,0] z[6,9,1] z[8,7,0] z[8,7,1] z[9,7,0] z[9,7,1] z[10,0,0] z[10,0,1]
 z[11,6,0] z[11,6,1] z[12,4,0] z[12,4,1] z[13,4,0] z[13,4,1] z[14,4,0]
 z[14,4,1] z[15,4,0] z[15,4,1] z[16,18,0] z[16,18,1] z[16,17,0] z[16,17,1]
 z[16,2,0] z[16,2,1] z[16,0,0] z[16,0,1] z[17,0,0] z[17,0,1] z[18,10,0]
 z[18,10,1] z[18,0,0] z[18,0,1] z[19,2,0] z[19,2,1] z[21,13,0] z[21,13,1]
 z[21,4,0] z[21,4,1] z[21,3,0] z[21,3,1] z[21,5,0] z[21,5,1] z[23,14,0]
 z[23,14,1] z[23,4,0] z[23,4,1] z[23,5,0] z[23,5,1] z[25,13,0] z[25,13,1]
 z[25,4,0] z[25,4,1] z[26,4,0] z[26,4,1] z[27,14,0] z[27,14,1] z[27,4,0]
 z[27,4,1] z[28,4,0] z[28,4,1] z[29,31,0] z[29,31,1] z[29,30,0] z[29,30,1]
 z[29,4,0] z[29,4,1] z[30,4,0] z[30,4,1] z[31,12,0] z[31,12,1] z[31,4,0]
 z[31,4,1] z[32,13,0] z[32,13,1] z[32,4,0] z[32,4,1] z[33,14,0] z[33,14,1]
 z[33,4,0] z[33,4,1] z[34,13,0] z[34,13,1] z[34,4,0] z[34,4,1] z[35,11,0]
 z[35,11,1] z[35,6,0] z[35,6,1] z[36,13,0] z[36,13,1] z[36,4,0] z[36,4,1]
 z[37,3,0] z[37,3,1] z[40,4,0] z[40,4,1] z[40,3,0] z[40,3,1] z[41,14,0]
 z[41,14,1] z[41,4,0] z[41,4,1] z[41,3,0] z[41,3,1] z[42,4,0] z[42,4,1]
 z[42,3,0] z[42,3,1] z[43,14,0] z[43,14,1] z[43,3,0] z[43,3,1] z[43,4,0]
 z[43,4,1] y[0,1] y[0,8] y[1,9] y[2,0] y[3,6] y[3,5] y[3,9] y[4,3] y[4,8]
 y[5,7] y[6,9] y[8,7] y[9,7] y[10,0] y[11,6] y[12,4] y[13,4] y[14,4]
 y[15,4] y[16,18] y[16,17] y[16,2] y[16,0] y[17,0] y[18,10] y[18,0] y[19,2]
 y[21,13] y[21,4] y[21,3] y[21,5] y[23,14] y[23,4] y[23,5] y[25,13] y[25,4]
 y[26,4] y[27,14] y[27,4] y[28,4] y[29,31] y[29,30] y[29,4] y[30,4]
 y[31,12] y[31,4] y[32,13] y[32,4] y[33,14] y[33,4] y[34,13] y[34,4]
 y[35,11] y[35,6] y[36,13] y[36,4] y[37,3] y[40,4] y[40,3] y[41,14] y[41,4]
 y[41,3] y[42,4] y[42,3] y[43,14] y[43,3] y[43,4]
End
